c 
c G(n,p) graph
c graph gen seed     : 341
c number of vertices : 50
c max number of edges: 1225
c edge probability   : 0.200000
c data structure     : sparse
c
c           Graph Stats
c number of vertices  : 50
c nonisolated vertices: 50
c number of edges     : 259
c edge density        : 0.211429
c max degree          : 18
c avg degree          : 10.36
c min degree          : 5
p col 50 259
e 1 50
e 1 40
e 1 27
e 1 21
e 1 14
e 1 3
e 1 2
e 2 49
e 2 31
e 2 26
e 2 24
e 2 23
e 2 20
e 2 14
e 2 13
e 3 47
e 3 46
e 3 32
e 3 27
e 3 20
e 3 19
e 3 13
e 3 12
e 4 49
e 4 39
e 4 38
e 4 36
e 4 35
e 4 34
e 4 32
e 4 28
e 4 26
e 4 19
e 4 6
e 4 5
e 5 49
e 5 47
e 5 41
e 5 33
e 5 31
e 5 28
e 5 27
e 5 26
e 5 25
e 5 20
e 5 7
e 6 47
e 6 41
e 6 40
e 6 33
e 6 21
e 6 14
e 6 10
e 6 9
e 7 46
e 7 39
e 7 34
e 7 30
e 7 29
e 7 28
e 7 27
e 7 26
e 7 22
e 7 21
e 7 17
e 7 14
e 7 13
e 7 12
e 8 47
e 8 45
e 8 42
e 8 40
e 8 38
e 8 31
e 8 15
e 8 12
e 9 48
e 9 47
e 9 39
e 9 36
e 9 35
e 9 32
e 10 47
e 10 38
e 10 35
e 10 34
e 10 27
e 10 21
e 10 20
e 11 48
e 11 42
e 11 40
e 11 37
e 11 19
e 12 49
e 12 46
e 12 45
e 12 42
e 12 33
e 12 30
e 12 29
e 12 27
e 12 24
e 12 16
e 13 49
e 13 46
e 13 39
e 13 38
e 13 36
e 13 27
e 13 22
e 13 20
e 13 18
e 14 38
e 14 37
e 14 34
e 14 27
e 14 21
e 15 47
e 15 46
e 15 44
e 15 34
e 15 27
e 15 24
e 15 23
e 15 22
e 16 50
e 16 47
e 16 45
e 16 43
e 16 41
e 16 38
e 16 36
e 16 32
e 16 18
e 17 44
e 17 32
e 17 26
e 17 21
e 17 18
e 18 41
e 18 39
e 18 35
e 18 32
e 18 31
e 18 27
e 18 21
e 19 43
e 19 41
e 19 40
e 19 31
e 19 25
e 20 49
e 20 43
e 20 27
e 20 21
e 21 50
e 21 48
e 21 43
e 21 37
e 21 35
e 21 30
e 21 29
e 21 27
e 22 49
e 22 43
e 22 42
e 22 39
e 22 38
e 22 32
e 22 28
e 22 27
e 22 25
e 23 41
e 23 38
e 23 37
e 23 35
e 23 27
e 24 39
e 24 35
e 24 34
e 24 26
e 25 46
e 25 44
e 25 41
e 25 40
e 25 38
e 25 33
e 25 28
e 25 27
e 26 48
e 26 43
e 26 42
e 26 41
e 26 40
e 26 39
e 27 38
e 27 36
e 27 32
e 28 40
e 28 35
e 29 46
e 29 41
e 29 35
e 29 33
e 29 32
e 29 31
e 30 47
e 30 41
e 30 40
e 30 39
e 31 50
e 31 48
e 31 46
e 31 45
e 31 42
e 31 36
e 32 46
e 32 45
e 32 42
e 32 41
e 32 39
e 32 33
e 33 46
e 33 43
e 33 38
e 34 50
e 34 47
e 34 42
e 34 41
e 34 38
e 34 36
e 34 35
e 35 50
e 35 44
e 35 38
e 35 37
e 36 50
e 36 49
e 36 48
e 36 39
e 37 49
e 37 44
e 37 43
e 38 47
e 38 45
e 38 44
e 38 43
e 39 44
e 39 40
e 40 50
e 41 49
e 42 49
e 42 45
e 44 50
e 44 48
e 44 46
e 45 49
e 46 49
